c CNF file corresponding to a (partial) station packing problem.
p cnf 5837 198
1 2 3 4 5 6 7 8 9 10 11 12 13 14 0
-1 -2 0
-1 -3 0
-1 -4 0
-1 -5 0
-1 -6 0
-1 -7 0
-1 -8 0
-1 -9 0
-1 -10 0
-1 -11 0
-1 -12 0
-1 -13 0
-1 -14 0
-2 -3 0
-2 -4 0
-2 -5 0
-2 -6 0
-2 -7 0
-2 -8 0
-2 -9 0
-2 -10 0
-2 -11 0
-2 -12 0
-2 -13 0
-2 -14 0
-3 -4 0
-3 -5 0
-3 -6 0
-3 -7 0
-3 -8 0
-3 -9 0
-3 -10 0
-3 -11 0
-3 -12 0
-3 -13 0
-3 -14 0
-4 -5 0
-4 -6 0
-4 -7 0
-4 -8 0
-4 -9 0
-4 -10 0
-4 -11 0
-4 -12 0
-4 -13 0
-4 -14 0
-5 -6 0
-5 -7 0
-5 -8 0
-5 -9 0
-5 -10 0
-5 -11 0
-5 -12 0
-5 -13 0
-5 -14 0
-6 -7 0
-6 -8 0
-6 -9 0
-6 -10 0
-6 -11 0
-6 -12 0
-6 -13 0
-6 -14 0
-7 -8 0
-7 -9 0
-7 -10 0
-7 -11 0
-7 -12 0
-7 -13 0
-7 -14 0
-8 -9 0
-8 -10 0
-8 -11 0
-8 -12 0
-8 -13 0
-8 -14 0
-9 -10 0
-9 -11 0
-9 -12 0
-9 -13 0
-9 -14 0
-10 -11 0
-10 -12 0
-10 -13 0
-10 -14 0
-11 -12 0
-11 -13 0
-11 -14 0
-12 -13 0
-12 -14 0
-13 -14 0
5823 5824 5825 5826 5827 5828 5829 5830 5831 5832 5833 5834 5835 5836 5837 0
-5823 -5824 0
-5823 -5825 0
-5823 -5826 0
-5823 -5827 0
-5823 -5828 0
-5823 -5829 0
-5823 -5830 0
-5823 -5831 0
-5823 -5832 0
-5823 -5833 0
-5823 -5834 0
-5823 -5835 0
-5823 -5836 0
-5823 -5837 0
-5824 -5825 0
-5824 -5826 0
-5824 -5827 0
-5824 -5828 0
-5824 -5829 0
-5824 -5830 0
-5824 -5831 0
-5824 -5832 0
-5824 -5833 0
-5824 -5834 0
-5824 -5835 0
-5824 -5836 0
-5824 -5837 0
-5825 -5826 0
-5825 -5827 0
-5825 -5828 0
-5825 -5829 0
-5825 -5830 0
-5825 -5831 0
-5825 -5832 0
-5825 -5833 0
-5825 -5834 0
-5825 -5835 0
-5825 -5836 0
-5825 -5837 0
-5826 -5827 0
-5826 -5828 0
-5826 -5829 0
-5826 -5830 0
-5826 -5831 0
-5826 -5832 0
-5826 -5833 0
-5826 -5834 0
-5826 -5835 0
-5826 -5836 0
-5826 -5837 0
-5827 -5828 0
-5827 -5829 0
-5827 -5830 0
-5827 -5831 0
-5827 -5832 0
-5827 -5833 0
-5827 -5834 0
-5827 -5835 0
-5827 -5836 0
-5827 -5837 0
-5828 -5829 0
-5828 -5830 0
-5828 -5831 0
-5828 -5832 0
-5828 -5833 0
-5828 -5834 0
-5828 -5835 0
-5828 -5836 0
-5828 -5837 0
-5829 -5830 0
-5829 -5831 0
-5829 -5832 0
-5829 -5833 0
-5829 -5834 0
-5829 -5835 0
-5829 -5836 0
-5829 -5837 0
-5830 -5831 0
-5830 -5832 0
-5830 -5833 0
-5830 -5834 0
-5830 -5835 0
-5830 -5836 0
-5830 -5837 0
-5831 -5832 0
-5831 -5833 0
-5831 -5834 0
-5831 -5835 0
-5831 -5836 0
-5831 -5837 0
-5832 -5833 0
-5832 -5834 0
-5832 -5835 0
-5832 -5836 0
-5832 -5837 0
-5833 -5834 0
-5833 -5835 0
-5833 -5836 0
-5833 -5837 0
-5834 -5835 0
-5834 -5836 0
-5834 -5837 0
-5835 -5836 0
-5835 -5837 0
-5836 -5837 0
